
<<< setup


<<< generate

Version identifier: 22.1.1.0 | 2022-11-27 | 9160aff4d
Tried aggregator 1 time.
MIQCP Presolve eliminated 321 rows and 1 columns.
MIQCP Presolve modified 1606 coefficients.
Reduced MIQCP has 3421 rows, 3180 columns, and 33020 nonzeros.
Reduced MIQCP has 190 binaries, 0 generals, 0 SOSs, and 0 indicators.
Reduced MIQCP has 492 quadratic constraints.
Presolve time = 0,11 sec. (103,19 ticks)
Probing fixed 0 vars, tightened 1969 bounds.
Probing time = 0,06 sec. (49,15 ticks)
Clique table members: 769.
MIP emphasis: balance optimality and feasibility.
MIP search method: dynamic search.
Parallel mode: deterministic, using up to 12 threads.
Root relaxation solution time = 0,03 sec. (30,42 ticks)

        Nodes                                         Cuts/
   Node  Left     Objective  IInf  Best Integer    Best Bound    ItCnt     Gap

      0     0     2984,3259     0                  10286,3197      231         
      0     0     2971,7760   124                     Cone: 1      408         
      0     0     2968,9055   132                     Cone: 2      516         
      0     0     2965,8283   144                     Cone: 3      648         
      0     0     2964,2016   138                     Cone: 4      767         
      0     0     2962,5165   143                     Cone: 5      912         
      0     0     2960,6581   151                     Cone: 6     1044         
